c File: instances/24_0.05_3.col
c
c Description: Random graph of size 24 vertices and P(0.05) of edges between any two vertices.
p col 24 276
e 1 10
e 2 21
e 3 15
e 5 11
e 6 14
e 8 20
e 9 15
e 9 22
e 12 20
e 14 22